[VALIDATOR STDOUT]
Checking plan: /home/jfan5/Safety-gen/runs/benchmark/optic/spanner_20260201_171241/spanner/optic_results/spanner-s6-n5-l9-s6001.plan
Plan executed successfully - checking goal
Plan valid
Final value: 20 

Successful plans:
Value: 20
 /home/jfan5/Safety-gen/runs/benchmark/optic/spanner_20260201_171241/spanner/optic_results/spanner-s6-n5-l9-s6001.plan 20
